!
!   GAMESS Calculation input file
!   Molecula de prueba
!
 $CONTRL SCFTYP=RHF MAXIT=200 RUNTYP=OPTIMIZE
         COORD=UNIQUE MULT=1 
         ICHARG=0  
         DFTTYP=B3LYP
         MOLPLT=.FALSE. PLTORB=.FALSE.  $END
 $SYSTEM TIMLIM=2879 MWORDS=250  $END

 $FORCE METHOD=SEMINUM NVIB=2 $END 
 $STATPT OPTTOL=0.0005 NSTEP=999 $END
 $STATPT IHREP=0 HSSEND=.TRUE.  $END

 $DFT    METHOD=GRID  NLEB=590  $END

 $BASIS  GBASIS=N31 NGAUSS=6
         NDFUNC=1   NPFUNC=0  $END

 $SCF    DIRSCF=.T. $END
 $GUESS  GUESS=HUCKEL  $END

 $DATA
   Molecula de prueba
  C1
C     6.0    -0.88020     0.04147     0.15577
C     6.0     0.22303    -0.90737    -0.14241
O     8.0    -0.78219     1.25341     0.05241
C     6.0     1.51341    -0.54080    -0.08115
H     1.0    -1.81903    -0.44138     0.48024
H     1.0    -0.06550    -1.91757    -0.39379
H     1.0     1.80396     0.46799     0.18878
H     1.0     2.29942    -1.25237    -0.29983
 $END


! Customizations after this line are persisted when using Do More Calculations
